0 0
1 3
2 0
3 2
4 1
5 0
6 0
7 13
8 3
9 11
10 18
11 1
12 9
13 4
14 11
15 5
16 17
17 19
18 20
19 20
20 2
21 19
22 20
23 4
24 10
25 0
26 4
27 18
28 5
29 5
30 18
31 8
32 8
33 8
34 6
35 6
36 6
37 8
38 6
39 7
40 7
41 1
42 7
43 6
44 9
45 20
46 6
47 6
48 1
49 13
50 3
51 1
52 10
53 10
54 20
55 17
56 17
57 1
58 6
59 9
60 5
61 11
62 10
63 1
64 5
65 13
66 12
67 8
68 17
69 0
70 7
71 2
72 0
73 12
74 3
75 12
76 3
77 13
78 11
79 9
80 1
81 19
82 4
83 5
84 12
85 13
86 9
87 5
88 12
89 13
90 12
91 2
92 0
93 10
94 14
95 0
96 20
97 11
98 10
99 16
100 4
101 18
102 15
103 12
104 15
105 17
106 16
107 16
108 16
109 16
110 16
111 15
112 15
113 16
114 7
115 15
116 17
117 16
118 15
119 1
120 9
121 2
122 11
123 15
124 13
125 15
126 13
127 2
128 12
129 13
130 14
131 13
132 14
133 11
134 11
135 17
136 17
137 1
138 19
139 19
140 4
141 1
142 19
143 14
144 19
145 20
146 18
147 5
148 14
149 9
150 14
151 7
152 3
153 3
154 20
155 20
156 1
157 8
158 19
159 19
160 0
161 5
162 0
163 19
164 13
165 8
166 12
167 12
168 0
169 4
170 20
171 1
172 20
173 20
174 9
175 10
176 19
177 2
178 17
179 0
180 14
